 ! --------------------------------------------------- CP Optimizer 22.1.1.0 --
 ! Maximization problem - 50 variables, 122 constraints
 ! Initial process time : 0.00s (0.00s extraction + 0.00s propagation)
 !  . Log search space  : 279.7 (before), 279.7 (after)
 !  . Memory usage      : 378.6 kB (before), 378.6 kB (after)
 ! Using parallel search with 8 workers.
 ! ----------------------------------------------------------------------------
 !          Best Branches  Non-fixed    W       Branch decision
                        0         50                 -
 + New bound is 48
                        0         50    1            -
 + New bound is 24
                        2         49    1   F     1 != labels(43)
 + New bound is 23
 *             1       50  0.03s        1      (gap is 2200%)
 *             2      292  0.03s        1      (gap is 1050%)
 *             3      393  0.03s        1      (gap is 666.7%)
 *             4      546  0.03s        1      (gap is 475.0%)
 *             5      594  0.03s        1      (gap is 360.0%)
 *             6      641  0.03s        1      (gap is 283.3%)
 *             7      702  0.03s        1      (gap is 228.6%)
 *             8      784  0.03s        1      (gap is 187.5%)
 *             9      840  0.03s        1      (gap is 155.6%)
 *            10      882  0.03s        1      (gap is 130.0%)
 *            11      921  0.03s        1      (gap is 109.1%)
 *            12      968  0.03s        1      (gap is 91.67%)
              12     1000          1    1        35  = labels(47)
              12     1000          1    2         5 != labels(41)
              12     1000          2    3        12 != labels(11)
              12     1000          1    4        36 != labels(24)
              12     1000          1    5   F     2  = labels(26)
 ! Time = 0.03s, Average fail depth = 26, Memory usage = 6.4 MB
 ! Current bound is 23 (gap is 91.67%)
 !          Best Branches  Non-fixed    W       Branch decision
              12     1000          2    6        15  = labels(28)
              12     1000          1    7        14 != labels(15)
              12     1000          1    8        34  = labels(11)
              12     2000          4    2   F    36  = labels(41)
 *            13     1372  0.04s        1      (gap is 76.92%)
 *            14     1459  0.04s        1      (gap is 64.29%)
 *            15     1508  0.04s        1      (gap is 53.33%)
 *            16     1637  0.04s        1      (gap is 43.75%)
              16     2000          2    1        38 != labels(26)
              16     2000          3    3   F     5 != labels(4)
              16     2000          2    4        49  = labels(9)
              16     2000          2    5   F    19  = labels(19)
              16     2000          2    6            -
              16     2000          2    7   F    38  = labels(4)
              16     2000          2    8         5  = labels(6)
              16     3000          4    3   F    11  = labels(7)
              16     3000         39    5   F     1  = labels(4)
              16     3000          5    6        38 != labels(24)
              16     3000          3    8        34 != labels(19)
              16     2461         41    1            -
 + New bound is 16 (gap is 0.00%)
 ! Time = 0.06s, Average fail depth = 37, Memory usage = 8.8 MB
 ! Current bound is 16 (gap is 0.00%)
 !          Best Branches  Non-fixed    W       Branch decision
 ! ----------------------------------------------------------------------------
 ! Search completed, 16 solutions found.
 ! Best objective         : 16 (optimal - effective tol. is 0)
 ! Best bound             : 16
 ! ----------------------------------------------------------------------------
 ! Number of branches     : 22992
 ! Number of fails        : 8082
 ! Total memory usage     : 9.0 MB (8.7 MB CP Optimizer + 0.4 MB Concert)
 ! Time spent in solve    : 0.06s (0.06s engine + 0.00s extraction)
 ! Search speed (br. / s) : 459840.0
 ! ----------------------------------------------------------------------------
